out/production/GUI/sample/bcs.dat
nbObjet = 2; // le nombre total des objects candidats
poidsMax = 2; // le poid maximal que le sac peut porter
valeur =[2, 2, 2];
poids = [2, 2, 2];
