out/production/GUI/sample/bcs.mps
* ENCODING=ISO-8859-1
NAME          bcs
ROWS
 N  obj     
 L  c1      
COLUMNS
    MARK0000  'MARKER'                 'INTORG'
    x(1)      obj                            -6
    x(1)      c1                             56
    x(2)      obj                           -10
    x(2)      c1                             62
    x(3)      obj                            -5
    x(3)      c1                             32
    x(4)      obj                            -4
    x(4)      c1                             48
    x(5)      obj                            -3
    x(5)      c1                             25
    x(6)      obj                            -2
    x(6)      c1                              3
    x(7)      obj                            -2
    x(7)      c1                              3
    MARK0001  'MARKER'                 'INTEND'
RHS
    rhs       c1                            100
BOUNDS
 UP bnd       x(1)                            1
 UP bnd       x(2)                            1
 UP bnd       x(3)                            1
 UP bnd       x(4)                            1
 UP bnd       x(5)                            1
 UP bnd       x(6)                            1
 UP bnd       x(7)                            1
ENDATA
